NODE_COORD_SECTION
1 1000 1000
2 0 0
3 0.01 0.01
4 0.02 0.02
5 0.03 0.03
6 0.04 0.04
7 0.05 0.05
8 0.06 0.06
9 0.07 0.07
10 0.08 0.08
11 0.09 0.09
2 100 100
3 100.01 100.01
4 100.02 100.02
5 100.03 100.03
6 100.04 100.04
7 100.05 100.05
8 100.06 100.06
9 100.07 100.07
10 100.08 100.08
11 100.09 100.09
1 200 200
2 200.01 200.01
3 200.02 200.02
4 200.03 200.03
5 200.04 200.04
6 200.05 200.05
7 200.06 200.06
8 200.07 200.07
9 200.08 200.08
10 200.09 200.09
1 300 300
2 300.01 300.01
3 300.02 300.02
4 300.03 300.03
5 300.04 300.04
6 300.05 300.05
7 300.06 300.06
8 300.07 300.07
9 300.08 300.08
10 300.09 300.09
1 400 400
2 400.01 400.01
3 400.02 400.02
4 400.03 400.03
5 400.04 400.04
6 400.05 400.05
7 400.06 400.06
8 400.07 400.07
9 400.08 400.08
10 400.09 400.09
1 500 500
2 500.01 500.01
3 500.02 500.02
4 500.03 500.03
5 500.04 500.04
6 500.05 500.05
7 500.06 500.06
8 500.07 500.07
9 500.08 500.08
10 500.09 500.09
1 600 600
2 600.01 600.01
3 600.02 600.02
4 600.03 600.03
5 600.04 600.04
6 600.05 600.05
7 600.06 600.06
8 600.07 600.07
9 600.08 600.08
10 600.09 600.09
1 700 700
2 700.01 700.01
3 700.02 700.02
4 700.03 700.03
5 700.04 700.04
6 700.05 700.05
7 700.06 700.06
8 700.07 700.07
9 700.08 700.08
10 700.09 700.09
1 800 800
2 800.01 800.01
3 800.02 800.02
4 800.03 800.03
5 800.04 800.04
6 800.05 800.05
7 800.06 800.06
8 800.07 800.07
9 800.08 800.08
10 800.09 800.09
1 900 900
2 900.01 900.01
3 900.02 900.02
4 900.03 900.03
5 900.04 900.04
6 900.05 900.05
7 900.06 900.06
8 900.07 900.07
9 900.08 900.08
10 900.09 900.09
2 100 0
3 100.01 0.01
4 100.02 0.02
5 100.03 0.03
6 100.04 0.04
7 100.05 0.05
8 100.06 0.06
9 100.07 0.07
10 100.08 0.08
11 100.09 0.09
2 200 100
3 200.01 100.01
4 200.02 100.02
5 200.03 100.03
6 200.04 100.04
7 200.05 100.05
8 200.06 100.06
9 200.07 100.07
10 200.08 100.08
11 200.09 100.09
1 200 200
2 300.01 200.01
3 300.02 200.02
4 300.03 200.03
5 300.04 200.04
6 300.05 200.05
7 300.06 200.06
8 300.07 200.07
9 300.08 200.08
10 300.09 200.09
1 400 300
2 400.01 300.01
3 400.02 300.02
4 400.03 300.03
5 400.04 300.04
6 400.05 300.05
7 400.06 300.06
8 400.07 300.07
9 400.08 300.08
10 400.09 300.09
1 500 400
2 500.01 400.01
3 500.02 400.02
4 500.03 400.03
5 500.04 400.04
6 500.05 400.05
7 500.06 400.06
8 500.07 400.07
9 500.08 400.08
10 500.09 400.09
1 600 500
2 600.01 500.01
3 600.02 500.02
4 600.03 500.03
5 600.04 500.04
6 600.05 500.05
7 600.06 500.06
8 600.07 500.07
9 600.08 500.08
10 600.09 500.09
1 700 600
2 700.01 600.01
3 700.02 600.02
4 700.03 600.03
5 700.04 600.04
6 700.05 600.05
7 700.06 600.06
8 700.07 600.07
9 700.08 600.08
10 700.09 600.09
1 800 700
2 800.01 700.01
3 800.02 700.02
4 800.03 700.03
5 800.04 700.04
6 800.05 700.05
7 800.06 700.06
8 800.07 700.07
9 800.08 700.08
10 800.09 700.09
1 900 800
2 900.01 800.01
3 900.02 800.02
4 900.03 800.03
5 900.04 800.04
6 900.05 800.05
7 900.06 800.06
8 900.07 800.07
9 900.08 800.08
10 900.09 800.09
1 950 900
2 950.01 900.01
3 950.02 900.02
4 950.03 900.03
5 950.04 900.04
6 950.05 900.05
7 950.06 900.06
8 950.07 900.07
9 950.08 900.08
1 100 900
2 100 900.01
3 100 900.02
4 100 900.03
5 100 900.04 
6 100 900.05
7 100 900.06 
8 100 900.07
9 100 900.08
1 100 800
2 100 800.01
3 100 800.02
4 100 800.03
5 100 800.04 
6 100 800.05
7 100 800.06 
8 100 800.07
9 100 800.08
1 950 50
2 950 100
3 900 50
4 900 100
EOF
